27
Route #1: 1 10 
Route #2: 2 13 
Route #3: 3 
Route #4: 4 
Route #5: 5 19 
Route #6: 6 15 
Route #7: 7 20 
Route #8: 8 17 
Route #9: 9 16 23 
Route #10: 11 22 
Route #11: 12 27 
Route #12: 14 24 
Route #13: 18 25 31 
Route #14: 21 32 35 
Route #15: 26 33 
Route #16: 28 
Route #17: 29 34 
Route #18: 30 36 
Route #19: 37 44 
Route #20: 38 42 
Route #21: 39 41 
Route #22: 40 46 
Route #23: 43 
Route #24: 45 
Route #25: 47 50 
Route #26: 48 
Route #27: 49 
Cost 43639.0
